
Gurobi 12.0.1 (linux64, gurobi_cl) logging started Sun Jul 20 13:01:35 2025

Set parameter Username
Set parameter LicenseID to value 2689328
Set parameter LogFile to value "gurobi.log"
Using license file /localhome/tmb8/gurobi.lic
Academic license - for non-commercial use only - expires 2026-07-18

Gurobi 12.0.1 (linux64, gurobi_cl) logging started Sun Jul 20 13:01:35 2025

Set parameter Username
Set parameter LicenseID to value 2689328
Set parameter LogFile to value "gurobi.log"
Using license file /localhome/tmb8/gurobi.lic
Academic license - for non-commercial use only - expires 2026-07-18

Gurobi 12.0.1 (linux64, gurobi_cl) logging started Sun Jul 20 13:02:03 2025

Set parameter Username
Set parameter LicenseID to value 2689328
Set parameter LogFile to value "gurobi.log"
Using license file /localhome/tmb8/gurobi.lic
Academic license - for non-commercial use only - expires 2026-07-18

Gurobi 12.0.1 (linux64, gurobi_cl) logging started Sun Jul 20 13:02:03 2025

Set parameter Username
Set parameter LicenseID to value 2689328
Set parameter LogFile to value "gurobi.log"
Using license file /localhome/tmb8/gurobi.lic
Academic license - for non-commercial use only - expires 2026-07-18

Gurobi 12.0.1 (linux64, gurobi_cl) logging started Sun Jul 20 13:02:38 2025

Set parameter Username
Set parameter LicenseID to value 2689328
Set parameter LogFile to value "gurobi.log"
Using license file /localhome/tmb8/gurobi.lic
Academic license - for non-commercial use only - expires 2026-07-18

Gurobi 12.0.1 (linux64, gurobi_cl) logging started Sun Jul 20 13:02:38 2025

Set parameter Username
Set parameter LicenseID to value 2689328
Set parameter LogFile to value "gurobi.log"
Using license file /localhome/tmb8/gurobi.lic
Academic license - for non-commercial use only - expires 2026-07-18

Gurobi 12.0.1 (linux64, gurobi_cl) logging started Sun Jul 20 13:04:12 2025

Set parameter Username
Set parameter LicenseID to value 2689328
Set parameter LogFile to value "gurobi.log"
Using license file /localhome/tmb8/gurobi.lic
Academic license - for non-commercial use only - expires 2026-07-18

Gurobi 12.0.1 (linux64, gurobi_cl) logging started Sun Jul 20 13:04:12 2025

Set parameter Username
Set parameter LicenseID to value 2689328
Set parameter LogFile to value "gurobi.log"
Using license file /localhome/tmb8/gurobi.lic
Academic license - for non-commercial use only - expires 2026-07-18

Gurobi 12.0.1 (linux64, gurobi_cl) logging started Sun Jul 20 13:05:16 2025

Set parameter Username
Set parameter LicenseID to value 2689328
Set parameter LogFile to value "gurobi.log"
Using license file /localhome/tmb8/gurobi.lic
Academic license - for non-commercial use only - expires 2026-07-18

Gurobi 12.0.1 (linux64, gurobi_cl) logging started Sun Jul 20 13:05:16 2025

Set parameter Username
Set parameter LicenseID to value 2689328
Set parameter LogFile to value "gurobi.log"
Using license file /localhome/tmb8/gurobi.lic
Academic license - for non-commercial use only - expires 2026-07-18

Gurobi 12.0.1 (linux64, gurobi_cl) logging started Sun Jul 20 13:06:13 2025

Set parameter Username
Set parameter LicenseID to value 2689328
Set parameter LogFile to value "gurobi.log"
Using license file /localhome/tmb8/gurobi.lic
Academic license - for non-commercial use only - expires 2026-07-18

Gurobi 12.0.1 (linux64, gurobi_cl) logging started Sun Jul 20 13:06:13 2025

Set parameter Username
Set parameter LicenseID to value 2689328
Set parameter LogFile to value "gurobi.log"
Using license file /localhome/tmb8/gurobi.lic
Academic license - for non-commercial use only - expires 2026-07-18

Gurobi 12.0.1 (linux64, gurobi_cl) logging started Sun Jul 20 13:08:05 2025

Set parameter Username
Set parameter LicenseID to value 2689328
Set parameter LogFile to value "gurobi.log"
Using license file /localhome/tmb8/gurobi.lic
Academic license - for non-commercial use only - expires 2026-07-18

Gurobi 12.0.1 (linux64, gurobi_cl) logging started Sun Jul 20 13:08:05 2025

Set parameter Username
Set parameter LicenseID to value 2689328
Set parameter LogFile to value "gurobi.log"
Using license file /localhome/tmb8/gurobi.lic
Academic license - for non-commercial use only - expires 2026-07-18

Gurobi 12.0.1 (linux64, gurobi_cl) logging started Sun Jul 20 13:08:21 2025

Set parameter Username
Set parameter LicenseID to value 2689328
Set parameter LogFile to value "gurobi.log"
Using license file /localhome/tmb8/gurobi.lic
Academic license - for non-commercial use only - expires 2026-07-18

Gurobi 12.0.1 (linux64, gurobi_cl) logging started Sun Jul 20 13:08:21 2025

Set parameter Username
Set parameter LicenseID to value 2689328
Set parameter LogFile to value "gurobi.log"
Using license file /localhome/tmb8/gurobi.lic
Academic license - for non-commercial use only - expires 2026-07-18

Gurobi 12.0.1 (linux64, gurobi_cl) logging started Sun Jul 20 13:11:56 2025

Set parameter Username
Set parameter LicenseID to value 2689328
Set parameter LogFile to value "gurobi.log"
Using license file /localhome/tmb8/gurobi.lic
Academic license - for non-commercial use only - expires 2026-07-18

Gurobi 12.0.1 (linux64, gurobi_cl) logging started Sun Jul 20 13:11:56 2025

Set parameter Username
Set parameter LicenseID to value 2689328
Set parameter LogFile to value "gurobi.log"
Using license file /localhome/tmb8/gurobi.lic
Academic license - for non-commercial use only - expires 2026-07-18

Gurobi 12.0.1 (linux64, gurobi_cl) logging started Sun Jul 20 13:41:56 2025

Set parameter Username
Set parameter LicenseID to value 2689328
Set parameter LogFile to value "gurobi.log"
Using license file /localhome/tmb8/gurobi.lic
Academic license - for non-commercial use only - expires 2026-07-18

Gurobi 12.0.1 (linux64, gurobi_cl) logging started Sun Jul 20 13:41:56 2025

Set parameter Username
Set parameter LicenseID to value 2689328
Set parameter LogFile to value "gurobi.log"
Using license file /localhome/tmb8/gurobi.lic
Academic license - for non-commercial use only - expires 2026-07-18

Gurobi 12.0.1 (linux64, gurobi_cl) logging started Sun Jul 20 13:55:20 2025

Set parameter Username
Set parameter LicenseID to value 2689328
Set parameter LogFile to value "gurobi.log"
Using license file /localhome/tmb8/gurobi.lic
Academic license - for non-commercial use only - expires 2026-07-18

Gurobi 12.0.1 (linux64, gurobi_cl) logging started Sun Jul 20 13:55:20 2025

Set parameter Username
Set parameter LicenseID to value 2689328
Set parameter LogFile to value "gurobi.log"
Using license file /localhome/tmb8/gurobi.lic
Academic license - for non-commercial use only - expires 2026-07-18
